p edge 320 1377
c 5611
e 0 265 1 0
e 0 239 1 1
e 0 313 1 2
e 0 212 1 3
e 0 153 1 4
e 0 312 2 6
e 0 316 1 7
e 1 304 1 9
e 1 8 1 11
e 1 42 1 13
e 2 246 1 16
e 2 213 1 17
e 2 18 1 19
e 2 66 3 20
e 2 80 1 21
e 2 269 2 23
e 3 162 1 24
e 3 132 1 25
e 3 30 21 26
e 3 290 2 27
e 3 189 1 29
e 3 205 1 30
e 3 243 1 31
e 3 299 1 33
e 4 240 2 36
e 4 34 1 37
e 4 239 1 41
e 5 112 1 44
e 5 101 1 47
e 6 124 1 50
e 6 69 1 53
e 6 230 1 55
e 7 176 1 56
e 7 78 1 57
e 7 280 2 59
e 7 149 1 61
e 7 221 3 62
e 7 294 1 63
e 8 110 1 64
e 8 178 1 66
e 8 163 1 67
e 8 193 2 68
e 8 217 37 69
e 9 47 4 70
e 9 185 1 71
e 9 54 27 74
e 9 237 7 75
e 10 280 2 79
e 11 70 1 81
e 11 159 1 82
e 11 99 1 83
e 11 279 1 84
e 11 52 1 86
e 11 55 2 87
e 11 105 1 88
e 11 277 48 89
e 12 277 40 90
e 12 245 1 96
e 13 114 1 98
e 13 240 1 106
e 14 103 2 110
e 14 197 1 111
e 14 293 2 112
e 14 141 1 113
e 14 143 1 114
e 14 215 1 115
e 14 234 1 116
e 14 268 1 117
e 14 300 3 118
e 15 245 1 120
e 15 174 1 122
e 15 34 1 123
e 16 25 1 125
e 16 268 1 126
e 16 272 1 127
e 16 219 2 128
e 16 51 1 129
e 16 85 1 130
e 16 107 1 131
e 16 159 2 132
e 16 282 1 133
e 17 32 1 137
e 17 237 10 141
e 18 257 2 143
e 18 27 1 144
e 18 164 1 145
e 18 240 2 146
e 18 147 1 147
e 18 152 3 148
e 18 210 1 149
e 18 266 1 151
e 19 135 2 152
e 19 60 2 153
e 19 126 1 157
e 19 146 2 158
e 19 218 1 159
e 19 314 1 160
e 20 167 1 162
e 20 72 1 163
e 21 267 29 169
e 21 42 1 170
e 21 54 5 171
e 22 57 23 174
e 22 173 1 178
e 22 241 35 179
e 23 230 2 180
e 23 249 1 181
e 23 67 2 182
e 23 30 16 184
e 24 158 1 185
e 24 34 1 186
e 24 280 1 187
e 25 144 2 197
e 25 49 1 198
e 26 113 1 202
e 26 285 1 203
e 26 58 1 206
e 27 309 2 207
e 27 228 1 210
e 27 77 1 211
e 27 290 1 214
e 28 33 1 218
e 29 247 9 220
e 29 286 1 221
e 29 288 1 222
e 29 67 1 223
e 29 105 1 224
e 29 147 1 225
e 29 164 1 226
e 29 259 1 228
e 29 267 37 229
e 29 273 1 230
e 30 187 43 232
e 30 174 39 233
e 30 108 35 234
e 30 117 36 235
e 30 277 20 236
e 30 236 27 237
e 30 217 39 238
e 30 226 46 239
e 30 241 35 240
e 30 237 38 241
e 30 247 33 243
e 30 255 36 244
e 30 291 22 245
e 30 317 16 246
e 31 194 1 248
e 31 228 2 249
e 31 114 1 251
e 32 210 1 254
e 32 209 1 255
e 32 145 2 256
e 32 38 1 257
e 32 34 2 258
e 32 152 2 259
e 32 155 1 260
e 32 227 1 261
e 32 228 1 262
e 33 248 2 264
e 33 278 1 265
e 33 82 1 266
e 33 56 2 268
e 34 87 1 270
e 34 129 1 271
e 34 126 3 273
e 34 307 2 274
e 35 63 1 278
e 35 239 1 280
e 37 58 1 288
e 37 77 1 290
e 38 133 47 296
e 39 143 1 300
e 39 306 2 301
e 40 290 1 309
e 40 158 1 310
e 41 290 1 313
e 41 158 2 316
e 42 170 1 320
e 42 303 2 321
e 43 178 2 322
e 43 290 1 331
e 44 131 1 332
e 44 250 1 333
e 44 164 1 334
e 44 168 1 336
e 45 170 1 343
e 46 185 1 347
e 46 111 1 350
e 47 178 2 357
e 47 251 1 358
e 48 178 1 360
e 48 306 3 361
e 48 219 2 363
e 49 233 3 365
e 49 278 1 366
e 49 220 2 367
e 51 121 39 378
e 53 81 1 384
e 53 281 1 385
e 53 286 1 386
e 53 71 1 387
e 53 133 47 388
e 53 150 1 389
e 53 169 1 390
e 53 231 1 391
e 53 254 1 392
e 53 296 1 395
e 54 201 7 396
e 54 278 35 397
e 54 91 11 398
e 54 217 3 399
e 54 317 31 400
e 54 144 4 401
e 54 267 2 402
e 54 108 12 403
e 54 154 29 404
e 54 226 43 405
e 54 121 42 406
e 54 133 10 407
e 54 236 48 408
e 54 237 33 409
e 54 241 46 410
e 54 247 34 411
e 54 277 22 412
e 54 291 47 413
e 55 216 1 415
e 55 217 19 416
e 55 283 2 417
e 55 306 2 418
e 56 282 1 420
e 56 68 2 421
e 56 90 2 422
e 56 94 1 423
e 56 96 1 424
e 56 119 1 425
e 56 286 2 426
e 57 128 46 427
e 57 264 20 428
e 57 249 14 429
e 57 226 46 430
e 57 79 42 431
e 57 217 23 432
e 57 154 25 433
e 57 133 5 434
e 57 317 49 435
e 57 267 21 436
e 57 236 17 437
e 57 237 19 438
e 57 117 22 439
e 57 108 7 440
e 57 241 40 441
e 58 111 1 443
e 58 313 1 444
e 58 67 1 445
e 58 282 1 447
e 60 66 1 455
e 60 176 1 456
e 60 213 1 458
e 60 62 1 459
e 60 254 2 461
e 60 258 1 462
e 60 262 1 463
e 60 292 1 464
e 61 93 1 465
e 61 283 1 472
e 62 304 1 475
e 62 226 18 478
e 63 94 1 479
e 63 110 1 481
e 63 114 1 482
e 63 131 1 483
e 64 139 3 485
e 64 111 1 487
e 64 285 1 488
e 65 275 1 490
e 66 226 3 498
e 67 75 1 501
e 67 177 2 505
e 69 271 1 509
e 69 92 1 510
e 70 137 1 518
e 71 199 1 525
e 72 149 1 526
e 72 109 1 527
e 72 267 7 528
e 73 112 2 532
e 74 237 23 533
e 74 75 1 534
e 74 170 1 535
e 75 284 2 541
e 75 184 1 542
e 75 174 1 543
e 75 253 1 544
e 75 91 2 545
e 75 265 1 547
e 76 290 1 548
e 76 204 1 553
e 77 172 1 555
e 77 176 1 556
e 77 242 3 557
e 78 146 1 558
e 78 201 2 559
e 78 163 1 562
e 78 181 2 563
e 82 275 1 578
e 82 180 3 583
e 82 189 1 584
e 82 245 1 585
e 82 247 42 586
e 82 257 1 588
e 85 101 1 600
e 86 199 1 606
e 86 263 1 610
e 87 309 1 619
e 88 190 1 620
e 88 315 1 622
e 88 118 1 623
e 89 301 30 624
e 89 259 1 625
e 89 303 1 626
e 89 208 1 627
e 89 198 1 630
e 89 258 2 631
e 89 283 1 632
e 91 236 14 635
e 92 141 1 638
e 92 187 1 639
e 92 160 1 640
e 92 95 1 641
e 92 270 2 644
e 93 99 1 645
e 93 109 1 646
e 93 107 2 647
e 93 208 2 648
e 93 194 1 649
e 93 296 2 651
e 94 190 1 652
e 94 103 1 653
e 94 100 1 655
e 94 210 1 657
e 94 220 2 658
e 95 136 1 659
e 95 120 1 661
e 95 134 1 662
e 95 219 1 664
e 95 231 1 665
e 95 287 1 666
e 95 317 1 667
e 96 227 1 668
e 96 158 1 669
e 97 184 2 672
e 97 127 1 673
e 97 132 1 675
e 97 300 1 676
e 97 307 1 677
e 98 101 1 679
e 98 267 10 680
e 99 117 21 688
e 99 277 30 691
e 100 285 1 692
e 101 274 1 696
e 101 107 1 697
e 101 216 1 698
e 101 259 1 699
e 102 290 1 701
e 103 228 1 703
e 104 230 1 708
e 104 316 1 709
e 104 305 2 710
e 104 252 1 711
e 104 107 1 712
e 104 199 1 713
e 104 308 1 715
e 104 310 2 716
e 108 159 3 727
e 108 291 47 729
e 108 117 18 730
e 108 236 17 731
e 108 121 7 732
e 108 133 19 733
e 108 144 45 734
e 108 154 21 735
e 108 223 48 736
e 108 226 19 737
e 108 237 29 738
e 108 246 36 740
e 109 202 1 741
e 109 193 1 742
e 109 169 1 743
e 109 223 2 746
e 110 181 1 748
e 110 280 2 751
e 111 119 1 755
e 111 156 2 756
e 111 308 1 757
e 111 315 1 758
e 112 181 3 759
e 112 132 1 760
e 112 239 2 761
e 112 194 1 763
e 113 191 1 765
e 113 118 1 766
e 113 303 1 767
e 114 231 1 768
e 114 151 1 769
e 114 122 1 770
e 114 127 1 771
e 114 188 1 773
e 114 236 26 774
e 114 253 1 775
e 115 127 2 776
e 116 263 1 782
e 116 176 1 783
e 116 170 1 785
e 116 174 1 786
e 116 227 1 788
e 117 261 44 791
e 117 194 30 792
e 117 133 12 793
e 117 267 27 794
e 117 144 17 795
e 117 121 21 796
e 117 217 12 797
e 117 154 19 798
e 117 277 42 799
e 117 129 40 800
e 117 233 13 801
e 117 236 15 802
e 117 237 7 803
e 117 241 9 804
e 118 226 10 805
e 118 236 4 807
e 118 306 1 808
e 119 280 1 813
e 120 148 1 814
e 120 152 1 816
e 120 127 1 817
e 120 179 1 818
e 121 301 47 821
e 121 171 33 822
e 121 133 41 824
e 121 267 30 825
e 121 217 38 826
e 121 226 47 827
e 121 144 16 828
e 121 158 24 830
e 121 237 8 831
e 121 247 20 832
e 121 277 40 834
e 122 240 1 836
e 122 239 2 837
e 124 263 1 840
e 124 310 1 841
e 124 139 1 843
e 124 186 3 844
e 124 242 1 845
e 125 176 1 847
e 125 216 1 849
e 125 136 1 850
e 126 280 3 855
e 126 221 6 857
e 126 228 1 858
e 127 177 2 859
e 128 177 3 864
e 129 296 1 870
e 129 148 1 871
e 130 296 1 878
e 131 304 1 884
e 132 285 1 887
e 133 310 13 889
e 133 217 47 890
e 133 277 10 891
e 133 291 19 892
e 133 267 27 893
e 133 144 6 894
e 133 134 10 895
e 133 236 19 896
e 133 317 1 897
e 135 241 19 903
e 136 243 1 907
e 136 139 1 908
e 136 155 2 909
e 136 203 3 910
e 136 211 1 911
e 137 169 1 913
e 137 150 1 914
e 137 204 1 915
e 137 212 1 916
e 137 290 1 917
e 139 234 1 927
e 139 262 1 928
e 139 187 2 929
e 139 238 1 930
e 139 288 2 931
e 140 230 1 934
e 141 185 1 936
e 141 148 1 939
e 142 177 2 942
e 142 239 2 943
e 143 268 1 945
e 143 194 1 946
e 143 262 1 947
e 144 160 18 949
e 144 244 36 950
e 144 173 40 951
e 144 301 16 952
e 144 291 38 953
e 144 154 39 954
e 144 175 49 955
e 144 236 29 957
e 144 247 47 958
e 144 270 49 959
e 144 277 6 960
e 146 186 1 964
e 147 275 1 971
e 148 222 1 972
e 148 297 1 973
e 148 162 1 974
e 149 259 1 976
e 149 288 1 977
e 149 166 1 979
e 149 276 1 980
e 150 304 1 983
e 150 176 1 985
e 150 192 1 986
e 150 199 1 987
e 150 309 1 988
e 151 178 2 989
e 151 304 1 990
e 151 204 1 991
e 152 208 2 994
e 152 272 1 995
e 152 156 1 996
e 153 199 2 999
e 153 230 1 1001
e 154 297 15 1003
e 154 291 27 1004
e 154 217 43 1005
e 154 226 1 1006
e 154 236 27 1007
e 154 301 18 1008
e 154 241 1 1010
e 154 287 18 1011
e 154 317 29 1013
e 155 227 3 1015
e 156 194 1 1017
e 157 201 2 1019
e 157 278 1 1020
e 157 284 1 1021
e 157 302 2 1022
e 157 167 2 1023
e 157 231 1 1024
e 158 243 1 1026
e 160 181 1 1035
e 162 180 1 1043
e 164 286 1 1046
e 165 230 1 1052
e 166 212 1 1056
e 166 216 1 1057
e 166 228 2 1058
e 167 202 1 1060
e 167 262 1 1061
e 167 282 1 1062
e 167 168 1 1063
e 169 239 2 1068
e 169 246 1 1070
e 169 216 1 1071
e 169 286 1 1073
e 170 301 3 1074
e 170 259 1 1076
e 171 205 2 1078
e 172 226 1 1083
e 173 292 2 1085
e 173 269 1 1086
e 173 303 1 1087
e 173 310 1 1088
e 174 292 2 1089
e 174 241 18 1090
e 175 219 1 1091
e 176 215 1 1093
e 176 277 30 1094
e 176 190 1 1095
e 177 208 1 1096
e 177 179 1 1097
e 177 180 2 1098
e 178 249 2 1099
e 179 280 1 1101
e 179 207 2 1102
e 179 222 1 1104
e 179 308 1 1105
e 179 313 1 1106
e 180 276 1 1107
e 180 253 1 1108
e 180 210 1 1110
e 180 233 1 1111
e 181 257 1 1113
e 182 216 1 1118
e 183 296 1 1123
e 184 185 1 1126
e 185 273 1 1130
e 185 203 1 1131
e 186 248 1 1133
e 186 234 2 1134
e 187 275 1 1136
e 189 192 3 1142
e 189 315 1 1143
e 190 246 1 1146
e 191 216 1 1148
e 192 258 1 1152
e 192 269 1 1153
e 192 202 1 1155
e 192 315 1 1156
e 193 217 4 1158
e 194 287 1 1161
e 194 201 1 1162
e 195 236 1 1165
e 195 270 2 1167
e 195 275 2 1168
e 196 204 1 1169
e 197 247 14 1173
e 197 205 1 1174
e 198 228 2 1177
e 199 204 3 1178
e 199 313 1 1179
e 201 283 1 1182
e 201 239 1 1183
e 201 251 1 1186
e 201 304 3 1189
e 203 290 1 1193
e 204 222 1 1195
e 204 303 1 1196
e 205 215 1 1197
e 205 229 1 1198
e 206 212 1 1199
e 207 240 1 1205
e 208 228 1 1207
e 212 235 1 1217
e 216 275 1 1222
e 217 258 24 1223
e 217 225 21 1225
e 217 226 14 1226
e 217 237 37 1227
e 217 241 38 1228
e 217 301 44 1230
e 218 251 1 1231
e 219 226 6 1236
e 220 283 2 1237
e 221 230 1 1239
e 221 279 4 1240
e 221 284 1 1241
e 224 306 1 1247
e 224 230 1 1248
e 225 291 24 1254
e 226 241 37 1256
e 226 236 29 1257
e 226 234 7 1258
e 226 237 29 1259
e 226 247 26 1260
e 226 273 23 1261
e 226 277 41 1262
e 228 289 1 1264
e 229 247 20 1265
e 230 245 1 1267
e 230 257 1 1268
e 230 260 1 1269
e 231 263 1 1270
e 232 270 1 1272
e 233 277 10 1274
e 235 251 1 1278
e 235 291 39 1279
e 236 248 28 1280
e 236 301 37 1281
e 236 237 40 1282
e 236 241 22 1283
e 236 247 46 1284
e 236 292 2 1285
e 237 241 24 1286
e 237 247 40 1287
e 237 277 25 1288
e 237 317 4 1289
e 240 249 1 1291
e 241 267 4 1292
e 241 247 18 1293
e 241 317 42 1295
e 245 293 1 1302
e 246 309 1 1303
e 247 318 36 1305
e 247 267 31 1306
e 247 301 35 1307
e 247 317 21 1308
e 248 290 1 1309
e 251 312 1 1316
e 252 267 21 1317
e 253 285 1 1320
e 257 278 1 1324
e 261 285 2 1330
e 263 313 1 1333
e 264 296 2 1334
e 276 283 1 1344
e 277 317 36 1345
e 278 291 2 1347
e 280 300 1 1351
e 280 304 1 1352
e 283 288 1 1354
e 285 296 1 1355
e 285 298 1 1356
e 285 317 32 1357
e 286 292 1 1358
e 287 317 2 1359
e 290 291 38 1363
e 291 302 1 1364
e 291 316 49 1365
e 294 300 1 1369
e 294 309 3 1370
e 297 317 44 1371
